phosphorene monolayer, JARVIS-DFT JVASP-60235 (OptB88vdW relaxed)
1.0
   3.3223553359359768    0.0000000000000000    0.0000000000000000
   0.0000000000000000    4.5788687945604050    0.0000000000000000
   0.0000000000000000    0.0000000000000000   22.1206630000000004
P
4
direct
   0.5000000000000000    0.0866883881510912   -0.0002376537561257 P
   0.0000000000000000    0.5866883881510914    0.0961056537561287 P
   0.5000000000000000    0.9133116118489086    0.0961056537561287 P
   0.0000000000000000    0.4133116118489090   -0.0002376537561257 P
